(set-logic HORN)
(declare-fun state ((Array Int Int) Int Int Bool Bool Int Int) Bool)
(assert (forall ((|A_5| (Array Int Int)) (|B_5| Int) (|C_4| Int) (|.loc.3| Bool) (|.loc.4| Bool) (|D_3| Int) (|D_4| Int) (|.x.9| Int) (|v_3_0| Int) (|.x.8| (Array Int Int)) (|.loc.5| Bool) (|.loc.6| Bool) (|.xtv.1| Int) (|.xpv.1| Int)) (=> (and (and (not .loc.4) (not .loc.3)) (= B_5 0)) (state |A_5| |B_5| |C_4| |.loc.3| |.loc.4| |D_3| |D_4|))))
(assert (forall ((|A_5| (Array Int Int)) (|B_5| Int) (|C_4| Int) (|.loc.3| Bool) (|.loc.4| Bool) (|D_3| Int) (|D_4| Int) (|.x.9| Int) (|v_3_0| Int) (|.x.8| (Array Int Int)) (|.loc.5| Bool) (|.loc.6| Bool) (|.xtv.1| Int) (|.xpv.1| Int)) (=> (and (state |A_5| |B_5| |C_4| |.loc.3| |.loc.4| |D_3| |D_4|) (let ((.def_17 (not .loc.4))) (let ((.def_18 (not .loc.3))) (let ((.def_26 (= v_3_0 0))) (let ((.def_27 (<= C_4 B_5))) (let ((.def_30 (= A_5 .x.8))) (let ((.def_33 (not .def_27))) (let ((.def_39 (= (+ B_5 (* (- 1) v_3_0)) (- 1)))) (let ((.def_41 (select A_5 B_5))) (let ((.def_46 (= .x.8 (store A_5 B_5 (+ (* (- 1) D_3) .def_41))))) (let ((.def_49 (not (<= D_3 B_5)))) (let ((.def_55 (<= 0 B_5))) (let ((.def_59 (not .loc.5))) (let ((.def_81 (not .loc.6))) (let ((.def_95 (not (<= B_5 D_3)))) (and (= C_4 .x.9) (or (or (or (and (or (or (and (or (and .def_18 (and (and .def_26 .def_27) .def_30)) (and (and (and (and .loc.3 .def_33) .def_39) .def_46) .def_49)) (and .loc.4 .loc.5)) (and (not .def_55) (and .def_17 (and (and .loc.3 (and .def_26 .def_30)) .def_59)))) (and .def_59 (and .def_49 (and .def_46 (and .def_39 (and .def_18 (and .loc.4 .def_33))))))) .loc.6) (and (= (+ C_4 (* (- 1) v_3_0)) 1) (and (and .def_17 (and .loc.5 (and .def_18 (and .def_27 .def_30)))) .def_81))) (and (= .x.8 (store A_5 B_5 (+ D_3 .def_41))) (and (and (= (+ B_5 (* (- 1) v_3_0)) 1) (and .def_81 (and .def_55 (and .def_17 (and .loc.3 .loc.5))))) .def_95))) (and (= .x.8 (store A_5 B_5 D_3)) (and .def_95 (and .def_81 (and .def_17 (and .def_59 (and .def_39 (and .def_18 .def_33)))))))))))))))))))))))) (state |.x.8| |v_3_0| |.x.9| |.loc.5| |.loc.6| |.xtv.1| |.xpv.1|))))
(assert (forall ((|A_5| (Array Int Int)) (|B_5| Int) (|C_4| Int) (|.loc.3| Bool) (|.loc.4| Bool) (|D_3| Int) (|D_4| Int) (|.x.9| Int) (|v_3_0| Int) (|.x.8| (Array Int Int)) (|.loc.5| Bool) (|.loc.6| Bool) (|.xtv.1| Int) (|.xpv.1| Int)) (=> (state |A_5| |B_5| |C_4| |.loc.3| |.loc.4| |D_3| |D_4|) (not (and (and .loc.3 .loc.4) (and (and (and (<= C_4 B_5) (not (<= D_4 0))) (<= 0 (select A_5 D_4))) (not (<= C_4 D_4))))))))
(check-sat)
